# Enforce the use of spherical GTO basis:
# the molden file generated in the cartesian (default) GTO basis
# cannot be used in GBTOlib due to a yet unknown normalization
# convention for the cartesian GTOs in PSI4.
set puream true
set print_MOs true

molecule {
    1  2
    symmetry C2v
    units ang

    no_com        # do not adjust centre of mass
    no_reorient   # do not adjust orientation of the molecule

    O   0.000000000   0.000000000   0.065783316
    H   0.000000000   0.821231769  -0.522160884
    H   0.000000000  -0.821231769  -0.522160884

}

# HF
set basis cc-pVQZ
set reference rohf
set maxiter 100

# CASSCF
set restricted_docc [ 1,0,0,0 ]
set active [ 3,0,1,2 ]
set mcscf_maxiter 1000

# state-averaging
set num_roots 1
set avg_states [ 0 ]
set avg_weights [ 1 ]

[E, wfn] = energy('scf', return_wfn=True)

molden(wfn, 'h2ox.molden')
